NAME : SCA8-4.111409.tour
COMMENT : Cost = 0_111409
COMMENT : Found by LKH [Keld Helsgaun] Thu Sep 14 15:29:18 2017
TYPE : TOUR
DIMENSION : 59
TOUR_SECTION
1
31
21
46
9
40
2
27
55
11
42
3
28
5
8
52
34
20
10
59
25
24
16
35
58
23
30
6
44
50
48
37
26
57
47
43
41
19
49
17
53
4
15
51
39
36
22
13
56
32
14
29
45
54
38
18
33
7
12
-1
EOF
